NAME: cum190.tsp
TYPE: TSP
COMMENT: User-generated TSP file
DIMENSION: 190
EDGE_WEIGHT_TYPE: EUC_2D
NODE_COORD_SECTION
1 53.0 11.0
2 20.0 38.0
3 10.0 97.0
4 74.0 86.0
5 90.0 30.0
6 68.0 6.0
7 33.0 71.0
8 64.0 67.0
9 43.0 56.0
10 50.0 39.0
11 50.0 51.0
12 56.0 93.0
13 55.0 14.0
14 91.0 32.0
15 55.0 48.0
16 18.0 94.0
17 35.0 81.0
18 97.0 89.0
19 61.0 86.0
20 14.0 2.0
21 74.0 90.0
22 49.0 2.0
23 99.0 56.0
24 5.0 64.0
25 8.0 49.0
26 60.0 98.0
27 67.0 32.0
28 8.0 91.0
29 15.0 19.0
30 40.0 85.0
31 14.0 49.0
32 21.0 5.0
33 56.0 13.0
34 39.0 40.0
35 13.0 84.0
36 91.0 61.0
37 48.0 5.0
38 18.0 11.0
39 60.0 44.0
40 39.0 80.0
41 3.0 89.0
42 20.0 75.0
43 20.0 3.0
44 95.0 36.0
45 26.0 65.0
46 9.0 61.0
47 96.0 23.0
48 57.0 96.0
49 27.0 76.0
50 57.0 8.0
51 83.0 49.0
52 11.0 62.0
53 88.0 57.0
54 75.0 15.0
55 29.0 34.0
56 18.0 73.0
57 33.0 85.0
58 54.0 42.0
59 25.0 47.0
60 46.0 33.0
61 41.0 43.0
62 98.0 98.0
63 53.0 74.0
64 95.0 66.0
65 82.0 98.0
66 37.0 61.0
67 47.0 18.0
68 50.0 61.0
69 16.0 23.0
70 74.0 54.0
71 82.0 50.0
72 8.0 37.0
73 86.0 63.0
74 6.0 71.0
75 22.0 92.0
76 43.0 85.0
77 37.0 9.0
78 86.0 87.0
79 80.0 20.0
80 92.0 75.0
81 27.0 58.0
82 93.0 62.0
83 77.0 89.0
84 27.0 83.0
85 64.0 13.0
86 38.0 28.0
87 87.0 78.0
88 45.0 36.0
89 67.0 97.0
90 49.0 68.0
91 7.0 53.0
92 68.0 42.0
93 95.0 50.0
94 88.0 47.0
95 92.0 10.0
96 82.0 82.0
97 21.0 67.0
98 6.0 13.0
99 14.0 99.0
100 60.0 14.0
101 89.0 12.0
102 76.0 63.0
103 39.0 24.0
104 25.0 96.0
105 64.0 85.0
106 99.0 35.0
107 41.0 2.0
108 52.0 57.0
109 25.0 82.0
110 97.0 86.0
111 3.0 31.0
112 85.0 96.0
113 16.0 85.0
114 51.0 70.0
115 6.0 77.0
116 6.0 18.0
117 84.0 84.0
118 11.0 27.0
119 43.0 92.0
120 68.0 13.0
121 100.0 23.0
122 50.0 30.0
123 71.0 45.0
124 8.0 75.0
125 100.0 60.0
126 21.0 86.0
127 88.0 92.0
128 50.0 90.0
129 34.0 34.0
130 21.0 91.0
131 81.0 88.0
132 48.0 3.0
133 49.0 17.0
134 94.0 10.0
135 38.0 56.0
136 30.0 36.0
137 35.0 67.0
138 72.0 35.0
139 4.0 79.0
140 91.0 74.0
141 42.0 64.0
142 81.0 95.0
143 75.0 92.0
144 25.0 13.0
145 83.0 9.0
146 15.0 15.0
147 4.0 90.0
148 76.0 12.0
149 21.0 44.0
150 23.0 76.0
151 85.0 76.0
152 37.0 33.0
153 6.0 41.0
154 55.0 60.0
155 48.0 27.0
156 55.0 63.0
157 72.0 34.0
158 12.0 82.0
159 14.0 49.0
160 14.0 37.0
161 46.0 89.0
162 36.0 45.0
163 58.0 96.0
164 20.0 65.0
165 21.0 53.0
166 40.0 69.0
167 78.0 62.0
168 83.0 85.0
169 58.0 59.0
170 10.0 65.0
171 50.0 85.0
172 82.0 45.0
173 17.0 10.0
174 86.0 53.0
175 24.0 83.0
176 37.0 14.0
177 61.0 88.0
178 98.0 41.0
179 51.0 94.0
180 100.0 85.0
181 86.0 63.0
182 65.0 29.0
183 67.0 66.0
184 6.0 39.0
185 38.0 18.0
186 23.0 85.0
187 64.0 70.0
188 13.0 45.0
189 94.0 8.0
190 70.0 1.0
EOF

